# Solution for model continuous_rest_k_medians
# Objective value = 49285
x[0,0] 1
x[0,1] 0
x[0,2] 0
x[1,0] 1
x[1,1] 0
x[1,2] 0
x[2,0] 1
x[2,1] 0
x[2,2] 0
x[3,0] 1
x[3,1] 0
x[3,2] 0
x[4,0] 1
x[4,1] 0
x[4,2] 0
x[5,0] 0
x[5,1] 0
x[5,2] 1
x[6,0] 1
x[6,1] 0
x[6,2] 0
x[7,0] 1
x[7,1] 0
x[7,2] 0
x[8,0] 1
x[8,1] 0
x[8,2] 0
x[9,0] 0
x[9,1] 1
x[9,2] 0
x[10,0] 0
x[10,1] 1
x[10,2] 0
x[11,0] 0
x[11,1] 1
x[11,2] 0
x[12,0] 1
x[12,1] 0
x[12,2] 0
x[13,0] 1
x[13,1] 0
x[13,2] 0
x[14,0] 0
x[14,1] 0
x[14,2] 1
x[15,0] 0
x[15,1] 0
x[15,2] 1
x[16,0] 1
x[16,1] 0
x[16,2] 0
x[17,0] 0
x[17,1] 0
x[17,2] 1
x[18,0] 1
x[18,1] 0
x[18,2] 0
x[19,0] 0
x[19,1] 0
x[19,2] 1
x[20,0] 0
x[20,1] 0
x[20,2] 1
x[21,0] 0
x[21,1] 0
x[21,2] 1
x[22,0] 1
x[22,1] 0
x[22,2] 0
x[23,0] 0
x[23,1] 0
x[23,2] 1
x[24,0] 0
x[24,1] 0
x[24,2] 1
x[25,0] 0
x[25,1] 0
x[25,2] 1
x[26,0] 0
x[26,1] 0
x[26,2] 1
x[27,0] 1
x[27,1] 0
x[27,2] 0
x[28,0] 1
x[28,1] 0
x[28,2] 0
x[29,0] 1
x[29,1] 0
x[29,2] 0
x[30,0] 1
x[30,1] 0
x[30,2] 0
x[31,0] 1
x[31,1] 0
x[31,2] 0
x[32,0] 1
x[32,1] 0
x[32,2] 0
x[33,0] 1
x[33,1] 0
x[33,2] 0
x[34,0] 1
x[34,1] 0
x[34,2] 0
x[35,0] 1
x[35,1] 0
x[35,2] 0
x[36,0] 1
x[36,1] 0
x[36,2] 0
x[37,0] 0
x[37,1] 1
x[37,2] 0
x[38,0] 0
x[38,1] 1
x[38,2] 0
x[39,0] 0
x[39,1] 1
x[39,2] 0
x[40,0] 1
x[40,1] 0
x[40,2] 0
x[41,0] 1
x[41,1] 0
x[41,2] 0
x[42,0] 1
x[42,1] 0
x[42,2] 0
x[43,0] 1
x[43,1] 0
x[43,2] 0
x[44,0] 1
x[44,1] 0
x[44,2] 0
x[45,0] 1
x[45,1] 0
x[45,2] 0
x[46,0] 0
x[46,1] 1
x[46,2] 0
x[47,0] 1
x[47,1] 0
x[47,2] 0
x[48,0] 1
x[48,1] 0
x[48,2] 0
x[49,0] 1
x[49,1] 0
x[49,2] 0
x[50,0] 0
x[50,1] 0
x[50,2] 1
x[51,0] 0
x[51,1] 0
x[51,2] 1
x[52,0] 0
x[52,1] 0
x[52,2] 1
x[53,0] 0
x[53,1] 0
x[53,2] 1
x[54,0] 0
x[54,1] 1
x[54,2] 0
x[55,0] 1
x[55,1] 0
x[55,2] 0
x[56,0] 1
x[56,1] 0
x[56,2] 0
x[57,0] 0
x[57,1] 1
x[57,2] 0
x[58,0] 1
x[58,1] 0
x[58,2] 0
x[59,0] 1
x[59,1] 0
x[59,2] 0
x[60,0] 0
x[60,1] 1
x[60,2] 0
x[61,0] 0
x[61,1] 1
x[61,2] 0
x[62,0] 0
x[62,1] 1
x[62,2] 0
x[63,0] 0
x[63,1] 1
x[63,2] 0
x[64,0] 0
x[64,1] 1
x[64,2] 0
x[65,0] 0
x[65,1] 1
x[65,2] 0
x[66,0] 1
x[66,1] 0
x[66,2] 0
x[67,0] 1
x[67,1] 0
x[67,2] 0
x[68,0] 1
x[68,1] 0
x[68,2] 0
x[69,0] 1
x[69,1] 0
x[69,2] 0
x[70,0] 0
x[70,1] 0
x[70,2] 1
x[71,0] 0
x[71,1] 0
x[71,2] 1
x[72,0] 0
x[72,1] 0
x[72,2] 1
x[73,0] 0
x[73,1] 0
x[73,2] 1
x[74,0] 1
x[74,1] 0
x[74,2] 0
x[75,0] 0
x[75,1] 0
x[75,2] 1
x[76,0] 0
x[76,1] 0
x[76,2] 1
x[77,0] 1
x[77,1] 0
x[77,2] 0
x[78,0] 0
x[78,1] 0
x[78,2] 1
x[79,0] 0
x[79,1] 0
x[79,2] 1
x[80,0] 0
x[80,1] 0
x[80,2] 1
x[81,0] 0
x[81,1] 0
x[81,2] 1
x[82,0] 0
x[82,1] 0
x[82,2] 1
x[83,0] 0
x[83,1] 0
x[83,2] 1
x[84,0] 0
x[84,1] 0
x[84,2] 1
x[85,0] 0
x[85,1] 0
x[85,2] 1
x[86,0] 0
x[86,1] 0
x[86,2] 1
x[87,0] 0
x[87,1] 0
x[87,2] 1
x[88,0] 0
x[88,1] 0
x[88,2] 1
x[89,0] 0
x[89,1] 0
x[89,2] 1
x[90,0] 0
x[90,1] 0
x[90,2] 1
x[91,0] 0
x[91,1] 0
x[91,2] 1
x[92,0] 0
x[92,1] 0
x[92,2] 1
x[93,0] 0
x[93,1] 0
x[93,2] 1
x[94,0] 0
x[94,1] 0
x[94,2] 1
x[95,0] 0
x[95,1] 0
x[95,2] 1
x[96,0] 0
x[96,1] 0
x[96,2] 1
x[97,0] 0
x[97,1] 0
x[97,2] 1
x[98,0] 0
x[98,1] 0
x[98,2] 1
x[99,0] 0
x[99,1] 0
x[99,2] 1
x[100,0] 0
x[100,1] 0
x[100,2] 1
x[101,0] 0
x[101,1] 0
x[101,2] 1
x[102,0] 1
x[102,1] 0
x[102,2] 0
x[103,0] 1
x[103,1] 0
x[103,2] 0
x[104,0] 1
x[104,1] 0
x[104,2] 0
x[105,0] 1
x[105,1] 0
x[105,2] 0
x[106,0] 1
x[106,1] 0
x[106,2] 0
x[107,0] 1
x[107,1] 0
x[107,2] 0
x[108,0] 1
x[108,1] 0
x[108,2] 0
x[109,0] 1
x[109,1] 0
x[109,2] 0
x[110,0] 0
x[110,1] 0
x[110,2] 1
x[111,0] 0
x[111,1] 0
x[111,2] 1
x[112,0] 0
x[112,1] 0
x[112,2] 1
x[113,0] 1
x[113,1] 0
x[113,2] 0
x[114,0] 0
x[114,1] 0
x[114,2] 1
x[115,0] 0
x[115,1] 1
x[115,2] 0
x[116,0] 0
x[116,1] 0
x[116,2] 1
x[117,0] 0
x[117,1] 0
x[117,2] 1
x[118,0] 0
x[118,1] 0
x[118,2] 1
x[119,0] 0
x[119,1] 0
x[119,2] 1
x[120,0] 0
x[120,1] 0
x[120,2] 1
x[121,0] 0
x[121,1] 0
x[121,2] 1
x[122,0] 0
x[122,1] 0
x[122,2] 1
x[123,0] 0
x[123,1] 0
x[123,2] 1
x[124,0] 0
x[124,1] 0
x[124,2] 1
x[125,0] 0
x[125,1] 0
x[125,2] 1
x[126,0] 0
x[126,1] 0
x[126,2] 1
x[127,0] 1
x[127,1] 0
x[127,2] 0
x[128,0] 1
x[128,1] 0
x[128,2] 0
x[129,0] 0
x[129,1] 0
x[129,2] 1
x[130,0] 1
x[130,1] 0
x[130,2] 0
x[131,0] 1
x[131,1] 0
x[131,2] 0
x[132,0] 1
x[132,1] 0
x[132,2] 0
x[133,0] 1
x[133,1] 0
x[133,2] 0
x[134,0] 1
x[134,1] 0
x[134,2] 0
x[135,0] 1
x[135,1] 0
x[135,2] 0
x[136,0] 1
x[136,1] 0
x[136,2] 0
x[137,0] 1
x[137,1] 0
x[137,2] 0
x[138,0] 1
x[138,1] 0
x[138,2] 0
x[139,0] 1
x[139,1] 0
x[139,2] 0
x[140,0] 1
x[140,1] 0
x[140,2] 0
x[141,0] 1
x[141,1] 0
x[141,2] 0
x[142,0] 1
x[142,1] 0
x[142,2] 0
x[143,0] 1
x[143,1] 0
x[143,2] 0
x[144,0] 1
x[144,1] 0
x[144,2] 0
x[145,0] 1
x[145,1] 0
x[145,2] 0
x[146,0] 1
x[146,1] 0
x[146,2] 0
x[147,0] 1
x[147,1] 0
x[147,2] 0
x[148,0] 1
x[148,1] 0
x[148,2] 0
x[149,0] 1
x[149,1] 0
x[149,2] 0
x[150,0] 1
x[150,1] 0
x[150,2] 0
x[151,0] 1
x[151,1] 0
x[151,2] 0
x[152,0] 1
x[152,1] 0
x[152,2] 0
x[153,0] 1
x[153,1] 0
x[153,2] 0
x[154,0] 1
x[154,1] 0
x[154,2] 0
x[155,0] 1
x[155,1] 0
x[155,2] 0
x[156,0] 1
x[156,1] 0
x[156,2] 0
x[157,0] 1
x[157,1] 0
x[157,2] 0
x[158,0] 1
x[158,1] 0
x[158,2] 0
x[159,0] 1
x[159,1] 0
x[159,2] 0
x[160,0] 1
x[160,1] 0
x[160,2] 0
x[161,0] 1
x[161,1] 0
x[161,2] 0
x[162,0] 1
x[162,1] 0
x[162,2] 0
x[163,0] 1
x[163,1] 0
x[163,2] 0
x[164,0] 1
x[164,1] 0
x[164,2] 0
x[165,0] 1
x[165,1] 0
x[165,2] 0
x[166,0] 1
x[166,1] 0
x[166,2] 0
x[167,0] 1
x[167,1] 0
x[167,2] 0
x[168,0] 1
x[168,1] 0
x[168,2] 0
x[169,0] 1
x[169,1] 0
x[169,2] 0
x[170,0] 1
x[170,1] 0
x[170,2] 0
x[171,0] 1
x[171,1] 0
x[171,2] 0
x[172,0] 1
x[172,1] 0
x[172,2] 0
x[173,0] 1
x[173,1] 0
x[173,2] 0
x[174,0] 1
x[174,1] 0
x[174,2] 0
x[175,0] 1
x[175,1] 0
x[175,2] 0
x[176,0] 0
x[176,1] 1
x[176,2] 0
x[177,0] 0
x[177,1] 1
x[177,2] 0
x[178,0] 0
x[178,1] 1
x[178,2] 0
x[179,0] 0
x[179,1] 1
x[179,2] 0
x[180,0] 0
x[180,1] 1
x[180,2] 0
x[181,0] 0
x[181,1] 1
x[181,2] 0
x[182,0] 0
x[182,1] 1
x[182,2] 0
x[183,0] 0
x[183,1] 1
x[183,2] 0
x[184,0] 0
x[184,1] 1
x[184,2] 0
x[185,0] 0
x[185,1] 1
x[185,2] 0
x[186,0] 0
x[186,1] 1
x[186,2] 0
x[187,0] 0
x[187,1] 1
x[187,2] 0
x[188,0] 0
x[188,1] 1
x[188,2] 0
x[189,0] 0
x[189,1] 1
x[189,2] 0
x[190,0] 0
x[190,1] 1
x[190,2] 0
x[191,0] 0
x[191,1] 0
x[191,2] 1
x[192,0] 0
x[192,1] 0
x[192,2] 1
x[193,0] 0
x[193,1] 0
x[193,2] 1
x[194,0] 1
x[194,1] 0
x[194,2] 0
x[195,0] 0
x[195,1] 1
x[195,2] 0
x[196,0] 1
x[196,1] 0
x[196,2] 0
x[197,0] 0
x[197,1] 1
x[197,2] 0
x[198,0] 1
x[198,1] 0
x[198,2] 0
x[199,0] 1
x[199,1] 0
x[199,2] 0
x[200,0] 1
x[200,1] 0
x[200,2] 0
x[201,0] 0
x[201,1] 1
x[201,2] 0
x[202,0] 0
x[202,1] 1
x[202,2] 0
x[203,0] 0
x[203,1] 1
x[203,2] 0
x[204,0] 0
x[204,1] 1
x[204,2] 0
x[205,0] 0
x[205,1] 0
x[205,2] 1
x[206,0] 0
x[206,1] 0
x[206,2] 1
x[207,0] 0
x[207,1] 0
x[207,2] 1
x[208,0] 0
x[208,1] 0
x[208,2] 1
x[209,0] 0
x[209,1] 0
x[209,2] 1
x[210,0] 0
x[210,1] 0
x[210,2] 1
x[211,0] 0
x[211,1] 0
x[211,2] 1
x[212,0] 0
x[212,1] 0
x[212,2] 1
x[213,0] 0
x[213,1] 0
x[213,2] 1
x[214,0] 0
x[214,1] 0
x[214,2] 1
x[215,0] 0
x[215,1] 0
x[215,2] 1
x[216,0] 1
x[216,1] 0
x[216,2] 0
x[217,0] 1
x[217,1] 0
x[217,2] 0
x[218,0] 1
x[218,1] 0
x[218,2] 0
x[219,0] 1
x[219,1] 0
x[219,2] 0
x[220,0] 0
x[220,1] 1
x[220,2] 0
x[221,0] 0
x[221,1] 1
x[221,2] 0
x[222,0] 0
x[222,1] 1
x[222,2] 0
x[223,0] 0
x[223,1] 1
x[223,2] 0
x[224,0] 0
x[224,1] 0
x[224,2] 1
x[225,0] 0
x[225,1] 1
x[225,2] 0
x[226,0] 0
x[226,1] 0
x[226,2] 1
x[227,0] 0
x[227,1] 0
x[227,2] 1
x[228,0] 0
x[228,1] 0
x[228,2] 1
x[229,0] 0
x[229,1] 1
x[229,2] 0
x[230,0] 0
x[230,1] 1
x[230,2] 0
x[231,0] 0
x[231,1] 1
x[231,2] 0
x[232,0] 1
x[232,1] 0
x[232,2] 0
x[233,0] 0
x[233,1] 1
x[233,2] 0
x[234,0] 0
x[234,1] 1
x[234,2] 0
x[235,0] 0
x[235,1] 1
x[235,2] 0
x[236,0] 0
x[236,1] 1
x[236,2] 0
x[237,0] 0
x[237,1] 1
x[237,2] 0
x[238,0] 0
x[238,1] 1
x[238,2] 0
x[239,0] 0
x[239,1] 1
x[239,2] 0
x[240,0] 0
x[240,1] 1
x[240,2] 0
x[241,0] 0
x[241,1] 1
x[241,2] 0
x[242,0] 0
x[242,1] 0
x[242,2] 1
x[243,0] 0
x[243,1] 0
x[243,2] 1
x[244,0] 1
x[244,1] 0
x[244,2] 0
x[245,0] 0
x[245,1] 0
x[245,2] 1
x[246,0] 0
x[246,1] 0
x[246,2] 1
x[247,0] 0
x[247,1] 0
x[247,2] 1
x[248,0] 0
x[248,1] 0
x[248,2] 1
x[249,0] 0
x[249,1] 0
x[249,2] 1
x[250,0] 0
x[250,1] 0
x[250,2] 1
x[251,0] 0
x[251,1] 0
x[251,2] 1
x[252,0] 0
x[252,1] 0
x[252,2] 1
x[253,0] 0
x[253,1] 0
x[253,2] 1
x[254,0] 0
x[254,1] 0
x[254,2] 1
x[255,0] 0
x[255,1] 0
x[255,2] 1
x[256,0] 0
x[256,1] 0
x[256,2] 1
x[257,0] 0
x[257,1] 0
x[257,2] 1
x[258,0] 0
x[258,1] 0
x[258,2] 1
x[259,0] 0
x[259,1] 0
x[259,2] 1
x[260,0] 0
x[260,1] 0
x[260,2] 1
x[261,0] 0
x[261,1] 0
x[261,2] 1
x[262,0] 0
x[262,1] 0
x[262,2] 1
x[263,0] 0
x[263,1] 0
x[263,2] 1
x[264,0] 0
x[264,1] 0
x[264,2] 1
x[265,0] 0
x[265,1] 0
x[265,2] 1
x[266,0] 0
x[266,1] 0
x[266,2] 1
x[267,0] 0
x[267,1] 0
x[267,2] 1
x[268,0] 0
x[268,1] 0
x[268,2] 1
x[269,0] 0
x[269,1] 0
x[269,2] 1
x[270,0] 1
x[270,1] 0
x[270,2] 0
x[271,0] 1
x[271,1] 0
x[271,2] 0
x[272,0] 1
x[272,1] 0
x[272,2] 0
x[273,0] 1
x[273,1] 0
x[273,2] 0
x[274,0] 1
x[274,1] 0
x[274,2] 0
x[275,0] 0
x[275,1] 1
x[275,2] 0
x[276,0] 0
x[276,1] 1
x[276,2] 0
x[277,0] 0
x[277,1] 1
x[277,2] 0
x[278,0] 0
x[278,1] 1
x[278,2] 0
x[279,0] 0
x[279,1] 1
x[279,2] 0
x[280,0] 0
x[280,1] 1
x[280,2] 0
x[281,0] 0
x[281,1] 1
x[281,2] 0
x[282,0] 0
x[282,1] 1
x[282,2] 0
x[283,0] 0
x[283,1] 1
x[283,2] 0
x[284,0] 0
x[284,1] 1
x[284,2] 0
x[285,0] 0
x[285,1] 1
x[285,2] 0
x[286,0] 0
x[286,1] 1
x[286,2] 0
x[287,0] 0
x[287,1] 1
x[287,2] 0
x[288,0] 0
x[288,1] 1
x[288,2] 0
x[289,0] 0
x[289,1] 1
x[289,2] 0
x[290,0] 0
x[290,1] 0
x[290,2] 1
x[291,0] 0
x[291,1] 0
x[291,2] 1
x[292,0] 0
x[292,1] 1
x[292,2] 0
x[293,0] 0
x[293,1] 1
x[293,2] 0
x[294,0] 0
x[294,1] 0
x[294,2] 1
x[295,0] 0
x[295,1] 1
x[295,2] 0
x[296,0] 1
x[296,1] 0
x[296,2] 0
x[297,0] 0
x[297,1] 1
x[297,2] 0
x[298,0] 0
x[298,1] 1
x[298,2] 0
x[299,0] 0
x[299,1] 1
x[299,2] 0
x[300,0] 0
x[300,1] 1
x[300,2] 0
x[301,0] 0
x[301,1] 1
x[301,2] 0
x[302,0] 0
x[302,1] 1
x[302,2] 0
x[303,0] 0
x[303,1] 1
x[303,2] 0
x[304,0] 0
x[304,1] 0
x[304,2] 1
x[305,0] 0
x[305,1] 1
x[305,2] 0
x[306,0] 0
x[306,1] 1
x[306,2] 0
x[307,0] 0
x[307,1] 0
x[307,2] 1
x[308,0] 1
x[308,1] 0
x[308,2] 0
x[309,0] 0
x[309,1] 1
x[309,2] 0
x[310,0] 0
x[310,1] 1
x[310,2] 0
x[311,0] 0
x[311,1] 1
x[311,2] 0
x[312,0] 0
x[312,1] 1
x[312,2] 0
x[313,0] 0
x[313,1] 1
x[313,2] 0
x[314,0] 0
x[314,1] 1
x[314,2] 0
x[315,0] 0
x[315,1] 1
x[315,2] 0
x[316,0] 0
x[316,1] 1
x[316,2] 0
x[317,0] 0
x[317,1] 1
x[317,2] 0
x[318,0] 0
x[318,1] 1
x[318,2] 0
x[319,0] 0
x[319,1] 1
x[319,2] 0
x[320,0] 0
x[320,1] 1
x[320,2] 0
x[321,0] 0
x[321,1] 1
x[321,2] 0
x[322,0] 0
x[322,1] 1
x[322,2] 0
x[323,0] 0
x[323,1] 1
x[323,2] 0
x[324,0] 0
x[324,1] 1
x[324,2] 0
x[325,0] 0
x[325,1] 1
x[325,2] 0
x[326,0] 0
x[326,1] 1
x[326,2] 0
x[327,0] 0
x[327,1] 0
x[327,2] 1
x[328,0] 0
x[328,1] 1
x[328,2] 0
x[329,0] 0
x[329,1] 1
x[329,2] 0
x[330,0] 0
x[330,1] 1
x[330,2] 0
x[331,0] 0
x[331,1] 1
x[331,2] 0
x[332,0] 0
x[332,1] 1
x[332,2] 0
x[333,0] 0
x[333,1] 1
x[333,2] 0
x[334,0] 0
x[334,1] 1
x[334,2] 0
x[335,0] 0
x[335,1] 1
x[335,2] 0
x[336,0] 0
x[336,1] 1
x[336,2] 0
x[337,0] 0
x[337,1] 1
x[337,2] 0
x[338,0] 0
x[338,1] 1
x[338,2] 0
x[339,0] 0
x[339,1] 0
x[339,2] 1
x[340,0] 0
x[340,1] 0
x[340,2] 1
x[341,0] 0
x[341,1] 0
x[341,2] 1
x[342,0] 0
x[342,1] 0
x[342,2] 1
x[343,0] 0
x[343,1] 1
x[343,2] 0
x[344,0] 0
x[344,1] 1
x[344,2] 0
x[345,0] 0
x[345,1] 0
x[345,2] 1
x[346,0] 0
x[346,1] 0
x[346,2] 1
x[347,0] 0
x[347,1] 0
x[347,2] 1
x[348,0] 0
x[348,1] 1
x[348,2] 0
x[349,0] 0
x[349,1] 1
x[349,2] 0
x[350,0] 0
x[350,1] 0
x[350,2] 1
x[351,0] 0
x[351,1] 0
x[351,2] 1
x[352,0] 0
x[352,1] 0
x[352,2] 1
x[353,0] 0
x[353,1] 0
x[353,2] 1
x[354,0] 0
x[354,1] 0
x[354,2] 1
x[355,0] 0
x[355,1] 0
x[355,2] 1
x[356,0] 0
x[356,1] 0
x[356,2] 1
x[357,0] 0
x[357,1] 0
x[357,2] 1
x[358,0] 0
x[358,1] 0
x[358,2] 1
x[359,0] 0
x[359,1] 1
x[359,2] 0
x[360,0] 0
x[360,1] 1
x[360,2] 0
x[361,0] 0
x[361,1] 1
x[361,2] 0
x[362,0] 0
x[362,1] 1
x[362,2] 0
x[363,0] 0
x[363,1] 1
x[363,2] 0
x[364,0] 0
x[364,1] 1
x[364,2] 0
x[365,0] 0
x[365,1] 1
x[365,2] 0
x[366,0] 0
x[366,1] 1
x[366,2] 0
x[367,0] 0
x[367,1] 1
x[367,2] 0
x[368,0] 0
x[368,1] 1
x[368,2] 0
x[369,0] 0
x[369,1] 0
x[369,2] 1
x[370,0] 0
x[370,1] 0
x[370,2] 1
x[371,0] 0
x[371,1] 0
x[371,2] 1
x[372,0] 0
x[372,1] 0
x[372,2] 1
x[373,0] 0
x[373,1] 0
x[373,2] 1
x[374,0] 0
x[374,1] 1
x[374,2] 0
x[375,0] 0
x[375,1] 1
x[375,2] 0
x[376,0] 0
x[376,1] 1
x[376,2] 0
x[377,0] 0
x[377,1] 1
x[377,2] 0
x[378,0] 0
x[378,1] 1
x[378,2] 0
x[379,0] 0
x[379,1] 1
x[379,2] 0
x[380,0] 0
x[380,1] 1
x[380,2] 0
x[381,0] 0
x[381,1] 1
x[381,2] 0
x[382,0] 1
x[382,1] 0
x[382,2] 0
x[383,0] 1
x[383,1] 0
x[383,2] 0
x[384,0] 0
x[384,1] 0
x[384,2] 1
x[385,0] 0
x[385,1] 0
x[385,2] 1
x[386,0] 0
x[386,1] 1
x[386,2] 0
x[387,0] 0
x[387,1] 1
x[387,2] 0
x[388,0] 0
x[388,1] 1
x[388,2] 0
x[389,0] 0
x[389,1] 1
x[389,2] 0
x[390,0] 0
x[390,1] 1
x[390,2] 0
x[391,0] 0
x[391,1] 1
x[391,2] 0
x[392,0] 0
x[392,1] 1
x[392,2] 0
x[393,0] 0
x[393,1] 1
x[393,2] 0
x[394,0] 0
x[394,1] 1
x[394,2] 0
x[395,0] 0
x[395,1] 1
x[395,2] 0
x[396,0] 0
x[396,1] 1
x[396,2] 0
x[397,0] 0
x[397,1] 1
x[397,2] 0
x[398,0] 0
x[398,1] 1
x[398,2] 0
x[399,0] 0
x[399,1] 1
x[399,2] 0
x[400,0] 0
x[400,1] 1
x[400,2] 0
x[401,0] 0
x[401,1] 1
x[401,2] 0
x[402,0] 0
x[402,1] 1
x[402,2] 0
x[403,0] 0
x[403,1] 1
x[403,2] 0
x[404,0] 0
x[404,1] 1
x[404,2] 0
x[405,0] 0
x[405,1] 1
x[405,2] 0
x[406,0] 0
x[406,1] 1
x[406,2] 0
x[407,0] 0
x[407,1] 1
x[407,2] 0
x[408,0] 0
x[408,1] 1
x[408,2] 0
x[409,0] 0
x[409,1] 1
x[409,2] 0
x[410,0] 0
x[410,1] 1
x[410,2] 0
x[411,0] 0
x[411,1] 1
x[411,2] 0
x[412,0] 0
x[412,1] 1
x[412,2] 0
x[413,0] 0
x[413,1] 1
x[413,2] 0
x[414,0] 0
x[414,1] 1
x[414,2] 0
x[415,0] 0
x[415,1] 1
x[415,2] 0
x[416,0] 0
x[416,1] 1
x[416,2] 0
x[417,0] 0
x[417,1] 1
x[417,2] 0
x[418,0] 0
x[418,1] 1
x[418,2] 0
x[419,0] 0
x[419,1] 1
x[419,2] 0
x[420,0] 0
x[420,1] 1
x[420,2] 0
x[421,0] 0
x[421,1] 1
x[421,2] 0
x[422,0] 0
x[422,1] 1
x[422,2] 0
x[423,0] 0
x[423,1] 1
x[423,2] 0
x[424,0] 0
x[424,1] 1
x[424,2] 0
x[425,0] 0
x[425,1] 1
x[425,2] 0
x[426,0] 0
x[426,1] 1
x[426,2] 0
x[427,0] 0
x[427,1] 1
x[427,2] 0
x[428,0] 0
x[428,1] 1
x[428,2] 0
x[429,0] 0
x[429,1] 1
x[429,2] 0
x[430,0] 0
x[430,1] 1
x[430,2] 0
x[431,0] 0
x[431,1] 1
x[431,2] 0
x[432,0] 0
x[432,1] 1
x[432,2] 0
x[433,0] 0
x[433,1] 1
x[433,2] 0
x[434,0] 0
x[434,1] 1
x[434,2] 0
x[435,0] 0
x[435,1] 1
x[435,2] 0
x[436,0] 0
x[436,1] 1
x[436,2] 0
x[437,0] 0
x[437,1] 1
x[437,2] 0
x[438,0] 0
x[438,1] 1
x[438,2] 0
x[439,0] 0
x[439,1] 1
x[439,2] 0
x[440,0] 0
x[440,1] 1
x[440,2] 0
x[441,0] 0
x[441,1] 1
x[441,2] 0
x[442,0] 0
x[442,1] 1
x[442,2] 0
x[443,0] 0
x[443,1] 1
x[443,2] 0
x[444,0] 0
x[444,1] 1
x[444,2] 0
x[445,0] 0
x[445,1] 1
x[445,2] 0
x[446,0] 0
x[446,1] 1
x[446,2] 0
x[447,0] 0
x[447,1] 1
x[447,2] 0
x[448,0] 0
x[448,1] 1
x[448,2] 0
x[449,0] 0
x[449,1] 1
x[449,2] 0
x[450,0] 0
x[450,1] 1
x[450,2] 0
x[451,0] 0
x[451,1] 1
x[451,2] 0
x[452,0] 0
x[452,1] 1
x[452,2] 0
x[453,0] 0
x[453,1] 1
x[453,2] 0
x[454,0] 0
x[454,1] 1
x[454,2] 0
x[455,0] 0
x[455,1] 1
x[455,2] 0
x[456,0] 0
x[456,1] 1
x[456,2] 0
x[457,0] 0
x[457,1] 1
x[457,2] 0
x[458,0] 0
x[458,1] 1
x[458,2] 0
x[459,0] 0
x[459,1] 0
x[459,2] 1
x[460,0] 0
x[460,1] 0
x[460,2] 1
x[461,0] 0
x[461,1] 0
x[461,2] 1
x[462,0] 0
x[462,1] 0
x[462,2] 1
x[463,0] 0
x[463,1] 0
x[463,2] 1
x[464,0] 0
x[464,1] 0
x[464,2] 1
x[465,0] 0
x[465,1] 0
x[465,2] 1
x[466,0] 0
x[466,1] 0
x[466,2] 1
x[467,0] 0
x[467,1] 0
x[467,2] 1
x[468,0] 0
x[468,1] 0
x[468,2] 1
x[469,0] 0
x[469,1] 0
x[469,2] 1
x[470,0] 0
x[470,1] 0
x[470,2] 1
x[471,0] 0
x[471,1] 0
x[471,2] 1
x[472,0] 0
x[472,1] 0
x[472,2] 1
x[473,0] 0
x[473,1] 0
x[473,2] 1
x[474,0] 1
x[474,1] 0
x[474,2] 0
x[475,0] 0
x[475,1] 0
x[475,2] 1
x[476,0] 0
x[476,1] 0
x[476,2] 1
x[477,0] 0
x[477,1] 0
x[477,2] 1
x[478,0] 0
x[478,1] 0
x[478,2] 1
x[479,0] 0
x[479,1] 0
x[479,2] 1
x[480,0] 0
x[480,1] 0
x[480,2] 1
x[481,0] 0
x[481,1] 0
x[481,2] 1
x[482,0] 0
x[482,1] 0
x[482,2] 1
x[483,0] 0
x[483,1] 0
x[483,2] 1
x[484,0] 0
x[484,1] 0
x[484,2] 1
x[485,0] 0
x[485,1] 0
x[485,2] 1
x[486,0] 0
x[486,1] 0
x[486,2] 1
x[487,0] 0
x[487,1] 0
x[487,2] 1
x[488,0] 0
x[488,1] 0
x[488,2] 1
x[489,0] 0
x[489,1] 0
x[489,2] 1
x[490,0] 0
x[490,1] 0
x[490,2] 1
x[491,0] 0
x[491,1] 1
x[491,2] 0
x[492,0] 0
x[492,1] 0
x[492,2] 1
x[493,0] 0
x[493,1] 0
x[493,2] 1
x[494,0] 0
x[494,1] 0
x[494,2] 1
x[495,0] 0
x[495,1] 1
x[495,2] 0
x[496,0] 0
x[496,1] 1
x[496,2] 0
x[497,0] 0
x[497,1] 0
x[497,2] 1
x[498,0] 0
x[498,1] 0
x[498,2] 1
x[499,0] 0
x[499,1] 0
x[499,2] 1
x[500,0] 0
x[500,1] 0
x[500,2] 1
x[501,0] 0
x[501,1] 0
x[501,2] 1
x[502,0] 0
x[502,1] 0
x[502,2] 1
x[503,0] 0
x[503,1] 0
x[503,2] 1
x[504,0] 0
x[504,1] 0
x[504,2] 1
x[505,0] 0
x[505,1] 0
x[505,2] 1
x[506,0] 0
x[506,1] 0
x[506,2] 1
x[507,0] 0
x[507,1] 0
x[507,2] 1
x[508,0] 0
x[508,1] 0
x[508,2] 1
x[509,0] 0
x[509,1] 0
x[509,2] 1
x[510,0] 0
x[510,1] 0
x[510,2] 1
x[511,0] 0
x[511,1] 0
x[511,2] 1
x[512,0] 0
x[512,1] 0
x[512,2] 1
x[513,0] 0
x[513,1] 0
x[513,2] 1
x[514,0] 0
x[514,1] 0
x[514,2] 1
x[515,0] 0
x[515,1] 0
x[515,2] 1
x[516,0] 0
x[516,1] 0
x[516,2] 1
x[517,0] 0
x[517,1] 0
x[517,2] 1
x[518,0] 0
x[518,1] 0
x[518,2] 1
x[519,0] 0
x[519,1] 0
x[519,2] 1
x[520,0] 0
x[520,1] 0
x[520,2] 1
x[521,0] 0
x[521,1] 0
x[521,2] 1
x[522,0] 0
x[522,1] 0
x[522,2] 1
x[523,0] 0
x[523,1] 0
x[523,2] 1
x[524,0] 0
x[524,1] 0
x[524,2] 1
x[525,0] 0
x[525,1] 0
x[525,2] 1
x[526,0] 0
x[526,1] 0
x[526,2] 1
x[527,0] 0
x[527,1] 0
x[527,2] 1
x[528,0] 0
x[528,1] 0
x[528,2] 1
x[529,0] 0
x[529,1] 0
x[529,2] 1
x[530,0] 0
x[530,1] 0
x[530,2] 1
x[531,0] 0
x[531,1] 0
x[531,2] 1
x[532,0] 0
x[532,1] 0
x[532,2] 1
x[533,0] 0
x[533,1] 0
x[533,2] 1
x[534,0] 0
x[534,1] 0
x[534,2] 1
x[535,0] 0
x[535,1] 0
x[535,2] 1
x[536,0] 0
x[536,1] 0
x[536,2] 1
x[537,0] 0
x[537,1] 0
x[537,2] 1
x[538,0] 0
x[538,1] 0
x[538,2] 1
x[539,0] 0
x[539,1] 0
x[539,2] 1
x[540,0] 0
x[540,1] 0
x[540,2] 1
x[541,0] 0
x[541,1] 0
x[541,2] 1
x[542,0] 0
x[542,1] 0
x[542,2] 1
x[543,0] 0
x[543,1] 0
x[543,2] 1
x[544,0] 0
x[544,1] 0
x[544,2] 1
x[545,0] 0
x[545,1] 0
x[545,2] 1
x[546,0] 0
x[546,1] 0
x[546,2] 1
x[547,0] 0
x[547,1] 0
x[547,2] 1
x[548,0] 0
x[548,1] 0
x[548,2] 1
x[549,0] 0
x[549,1] 0
x[549,2] 1
x[550,0] 0
x[550,1] 0
x[550,2] 1
x[551,0] 0
x[551,1] 0
x[551,2] 1
x[552,0] 0
x[552,1] 0
x[552,2] 1
x[553,0] 0
x[553,1] 0
x[553,2] 1
x[554,0] 0
x[554,1] 0
x[554,2] 1
x[555,0] 0
x[555,1] 0
x[555,2] 1
x[556,0] 0
x[556,1] 0
x[556,2] 1
x[557,0] 0
x[557,1] 0
x[557,2] 1
x[558,0] 0
x[558,1] 0
x[558,2] 1
x[559,0] 0
x[559,1] 0
x[559,2] 1
x[560,0] 0
x[560,1] 0
x[560,2] 1
x[561,0] 0
x[561,1] 0
x[561,2] 1
x[562,0] 0
x[562,1] 0
x[562,2] 1
x[563,0] 0
x[563,1] 0
x[563,2] 1
x[564,0] 0
x[564,1] 0
x[564,2] 1
x[565,0] 0
x[565,1] 0
x[565,2] 1
x[566,0] 0
x[566,1] 0
x[566,2] 1
x[567,0] 0
x[567,1] 0
x[567,2] 1
x[568,0] 0
x[568,1] 0
x[568,2] 1
x[569,0] 0
x[569,1] 0
x[569,2] 1
x[570,0] 0
x[570,1] 0
x[570,2] 1
x[571,0] 0
x[571,1] 0
x[571,2] 1
x[572,0] 1
x[572,1] 0
x[572,2] 0
x[573,0] 1
x[573,1] 0
x[573,2] 0
x[574,0] 1
x[574,1] 0
x[574,2] 0
x[575,0] 1
x[575,1] 0
x[575,2] 0
x[576,0] 0
x[576,1] 0
x[576,2] 1
x[577,0] 0
x[577,1] 0
x[577,2] 1
x[578,0] 0
x[578,1] 0
x[578,2] 1
x[579,0] 0
x[579,1] 0
x[579,2] 1
x[580,0] 0
x[580,1] 0
x[580,2] 1
x[581,0] 0
x[581,1] 0
x[581,2] 1
x[582,0] 0
x[582,1] 0
x[582,2] 1
x[583,0] 0
x[583,1] 0
x[583,2] 1
x[584,0] 0
x[584,1] 0
x[584,2] 1
x[585,0] 0
x[585,1] 0
x[585,2] 1
x[586,0] 0
x[586,1] 0
x[586,2] 1
x[587,0] 0
x[587,1] 1
x[587,2] 0
x[588,0] 0
x[588,1] 0
x[588,2] 1
x[589,0] 0
x[589,1] 0
x[589,2] 1
x[590,0] 0
x[590,1] 0
x[590,2] 1
x[591,0] 0
x[591,1] 0
x[591,2] 1
x[592,0] 0
x[592,1] 0
x[592,2] 1
x[593,0] 0
x[593,1] 0
x[593,2] 1
x[594,0] 0
x[594,1] 0
x[594,2] 1
x[595,0] 0
x[595,1] 0
x[595,2] 1
x[596,0] 1
x[596,1] 0
x[596,2] 0
x[597,0] 0
x[597,1] 0
x[597,2] 1
x[598,0] 0
x[598,1] 0
x[598,2] 1
x[599,0] 0
x[599,1] 0
x[599,2] 1
x[600,0] 0
x[600,1] 0
x[600,2] 1
x[601,0] 1
x[601,1] 0
x[601,2] 0
x[602,0] 0
x[602,1] 0
x[602,2] 1
x[603,0] 0
x[603,1] 1
x[603,2] 0
x[604,0] 0
x[604,1] 0
x[604,2] 1
x[605,0] 0
x[605,1] 0
x[605,2] 1
x[606,0] 0
x[606,1] 0
x[606,2] 1
x[607,0] 0
x[607,1] 0
x[607,2] 1
x[608,0] 0
x[608,1] 0
x[608,2] 1
x[609,0] 1
x[609,1] 0
x[609,2] 0
x[610,0] 0
x[610,1] 0
x[610,2] 1
x[611,0] 0
x[611,1] 0
x[611,2] 1
x[612,0] 0
x[612,1] 0
x[612,2] 1
x[613,0] 0
x[613,1] 0
x[613,2] 1
x[614,0] 0
x[614,1] 0
x[614,2] 1
x[615,0] 0
x[615,1] 0
x[615,2] 1
x[616,0] 0
x[616,1] 0
x[616,2] 1
x[617,0] 0
x[617,1] 0
x[617,2] 1
x[618,0] 0
x[618,1] 0
x[618,2] 1
x[619,0] 0
x[619,1] 0
x[619,2] 1
x[620,0] 0
x[620,1] 0
x[620,2] 1
x[621,0] 0
x[621,1] 1
x[621,2] 0
x[622,0] 0
x[622,1] 0
x[622,2] 1
x[623,0] 0
x[623,1] 0
x[623,2] 1
x[624,0] 0
x[624,1] 0
x[624,2] 1
x[625,0] 0
x[625,1] 0
x[625,2] 1
x[626,0] 0
x[626,1] 0
x[626,2] 1
x[627,0] 0
x[627,1] 0
x[627,2] 1
x[628,0] 0
x[628,1] 0
x[628,2] 1
x[629,0] 1
x[629,1] 0
x[629,2] 0
x[630,0] 1
x[630,1] 0
x[630,2] 0
x[631,0] 0
x[631,1] 1
x[631,2] 0
x[632,0] 0
x[632,1] 1
x[632,2] 0
x[633,0] 0
x[633,1] 1
x[633,2] 0
x[634,0] 0
x[634,1] 1
x[634,2] 0
x[635,0] 0
x[635,1] 0
x[635,2] 1
x[636,0] 0
x[636,1] 0
x[636,2] 1
x[637,0] 0
x[637,1] 0
x[637,2] 1
x[638,0] 0
x[638,1] 0
x[638,2] 1
x[639,0] 0
x[639,1] 0
x[639,2] 1
x[640,0] 0
x[640,1] 0
x[640,2] 1
x[641,0] 0
x[641,1] 0
x[641,2] 1
x[642,0] 0
x[642,1] 0
x[642,2] 1
x[643,0] 0
x[643,1] 0
x[643,2] 1
x[644,0] 0
x[644,1] 0
x[644,2] 1
x[645,0] 0
x[645,1] 0
x[645,2] 1
x[646,0] 0
x[646,1] 0
x[646,2] 1
x[647,0] 0
x[647,1] 0
x[647,2] 1
x[648,0] 0
x[648,1] 0
x[648,2] 1
x[649,0] 0
x[649,1] 0
x[649,2] 1
x[650,0] 0
x[650,1] 0
x[650,2] 1
x[651,0] 0
x[651,1] 0
x[651,2] 1
x[652,0] 0
x[652,1] 0
x[652,2] 1
x[653,0] 0
x[653,1] 0
x[653,2] 1
x[654,0] 0
x[654,1] 0
x[654,2] 1
x[655,0] 0
x[655,1] 0
x[655,2] 1
x[656,0] 0
x[656,1] 0
x[656,2] 1
x[657,0] 0
x[657,1] 0
x[657,2] 1
x[658,0] 0
x[658,1] 0
x[658,2] 1
x[659,0] 0
x[659,1] 0
x[659,2] 1
x[660,0] 0
x[660,1] 0
x[660,2] 1
x[661,0] 0
x[661,1] 0
x[661,2] 1
x[662,0] 0
x[662,1] 0
x[662,2] 1
x[663,0] 0
x[663,1] 0
x[663,2] 1
x[664,0] 0
x[664,1] 0
x[664,2] 1
x[665,0] 0
x[665,1] 0
x[665,2] 1
x[666,0] 0
x[666,1] 0
x[666,2] 1
x[667,0] 0
x[667,1] 0
x[667,2] 1
x[668,0] 0
x[668,1] 0
x[668,2] 1
x[669,0] 0
x[669,1] 0
x[669,2] 1
x[670,0] 0
x[670,1] 0
x[670,2] 1
x[671,0] 0
x[671,1] 0
x[671,2] 1
x[672,0] 0
x[672,1] 0
x[672,2] 1
x[673,0] 0
x[673,1] 0
x[673,2] 1
x[674,0] 0
x[674,1] 0
x[674,2] 1
x[675,0] 0
x[675,1] 0
x[675,2] 1
x[676,0] 0
x[676,1] 0
x[676,2] 1
x[677,0] 0
x[677,1] 0
x[677,2] 1
x[678,0] 0
x[678,1] 0
x[678,2] 1
x[679,0] 0
x[679,1] 0
x[679,2] 1
x[680,0] 0
x[680,1] 0
x[680,2] 1
x[681,0] 0
x[681,1] 0
x[681,2] 1
x[682,0] 0
x[682,1] 0
x[682,2] 1
x[683,0] 0
x[683,1] 0
x[683,2] 1
x[684,0] 0
x[684,1] 0
x[684,2] 1
x[685,0] 0
x[685,1] 0
x[685,2] 1
x[686,0] 0
x[686,1] 0
x[686,2] 1
x[687,0] 0
x[687,1] 0
x[687,2] 1
x[688,0] 0
x[688,1] 0
x[688,2] 1
x[689,0] 0
x[689,1] 0
x[689,2] 1
x[690,0] 0
x[690,1] 0
x[690,2] 1
x[691,0] 0
x[691,1] 0
x[691,2] 1
x[692,0] 0
x[692,1] 0
x[692,2] 1
x[693,0] 0
x[693,1] 0
x[693,2] 1
x[694,0] 1
x[694,1] 0
x[694,2] 0
x[695,0] 1
x[695,1] 0
x[695,2] 0
x[696,0] 1
x[696,1] 0
x[696,2] 0
x[697,0] 1
x[697,1] 0
x[697,2] 0
x[698,0] 0
x[698,1] 0
x[698,2] 1
x[699,0] 0
x[699,1] 0
x[699,2] 1
x[700,0] 0
x[700,1] 0
x[700,2] 1
x[701,0] 0
x[701,1] 0
x[701,2] 1
x[702,0] 0
x[702,1] 0
x[702,2] 1
x[703,0] 0
x[703,1] 0
x[703,2] 1
x[704,0] 0
x[704,1] 0
x[704,2] 1
x[705,0] 0
x[705,1] 0
x[705,2] 1
x[706,0] 0
x[706,1] 0
x[706,2] 1
x[707,0] 0
x[707,1] 0
x[707,2] 1
x[708,0] 0
x[708,1] 0
x[708,2] 1
x[709,0] 0
x[709,1] 0
x[709,2] 1
x[710,0] 0
x[710,1] 1
x[710,2] 0
x[711,0] 0
x[711,1] 1
x[711,2] 0
x[712,0] 0
x[712,1] 1
x[712,2] 0
x[713,0] 0
x[713,1] 1
x[713,2] 0
x[714,0] 0
x[714,1] 0
x[714,2] 1
x[715,0] 0
x[715,1] 0
x[715,2] 1
x[716,0] 0
x[716,1] 1
x[716,2] 0
x[717,0] 0
x[717,1] 0
x[717,2] 1
x[718,0] 1
x[718,1] 0
x[718,2] 0
x[719,0] 1
x[719,1] 0
x[719,2] 0
x[720,0] 1
x[720,1] 0
x[720,2] 0
x[721,0] 1
x[721,1] 0
x[721,2] 0
x[722,0] 1
x[722,1] 0
x[722,2] 0
x[723,0] 1
x[723,1] 0
x[723,2] 0
x[724,0] 1
x[724,1] 0
x[724,2] 0
x[725,0] 1
x[725,1] 0
x[725,2] 0
x[726,0] 1
x[726,1] 0
x[726,2] 0
x[727,0] 1
x[727,1] 0
x[727,2] 0
x[728,0] 1
x[728,1] 0
x[728,2] 0
x[729,0] 1
x[729,1] 0
x[729,2] 0
x[730,0] 1
x[730,1] 0
x[730,2] 0
x[731,0] 1
x[731,1] 0
x[731,2] 0
x[732,0] 1
x[732,1] 0
x[732,2] 0
x[733,0] 1
x[733,1] 0
x[733,2] 0
x[734,0] 1
x[734,1] 0
x[734,2] 0
x[735,0] 1
x[735,1] 0
x[735,2] 0
x[736,0] 1
x[736,1] 0
x[736,2] 0
x[737,0] 1
x[737,1] 0
x[737,2] 0
x[738,0] 1
x[738,1] 0
x[738,2] 0
x[739,0] 1
x[739,1] 0
x[739,2] 0
x[740,0] 1
x[740,1] 0
x[740,2] 0
x[741,0] 1
x[741,1] 0
x[741,2] 0
x[742,0] 1
x[742,1] 0
x[742,2] 0
x[743,0] 1
x[743,1] 0
x[743,2] 0
x[744,0] 1
x[744,1] 0
x[744,2] 0
x[745,0] 1
x[745,1] 0
x[745,2] 0
x[746,0] 1
x[746,1] 0
x[746,2] 0
x[747,0] 1
x[747,1] 0
x[747,2] 0
x[748,0] 1
x[748,1] 0
x[748,2] 0
x[749,0] 1
x[749,1] 0
x[749,2] 0
x[750,0] 1
x[750,1] 0
x[750,2] 0
x[751,0] 1
x[751,1] 0
x[751,2] 0
x[752,0] 1
x[752,1] 0
x[752,2] 0
x[753,0] 1
x[753,1] 0
x[753,2] 0
x[754,0] 1
x[754,1] 0
x[754,2] 0
x[755,0] 1
x[755,1] 0
x[755,2] 0
x[756,0] 1
x[756,1] 0
x[756,2] 0
x[757,0] 1
x[757,1] 0
x[757,2] 0
x[758,0] 1
x[758,1] 0
x[758,2] 0
x[759,0] 1
x[759,1] 0
x[759,2] 0
x[760,0] 1
x[760,1] 0
x[760,2] 0
x[761,0] 1
x[761,1] 0
x[761,2] 0
x[762,0] 1
x[762,1] 0
x[762,2] 0
x[763,0] 1
x[763,1] 0
x[763,2] 0
x[764,0] 1
x[764,1] 0
x[764,2] 0
x[765,0] 1
x[765,1] 0
x[765,2] 0
x[766,0] 1
x[766,1] 0
x[766,2] 0
x[767,0] 1
x[767,1] 0
x[767,2] 0
x[768,0] 1
x[768,1] 0
x[768,2] 0
x[769,0] 1
x[769,1] 0
x[769,2] 0
x[770,0] 1
x[770,1] 0
x[770,2] 0
x[771,0] 1
x[771,1] 0
x[771,2] 0
x[772,0] 1
x[772,1] 0
x[772,2] 0
x[773,0] 1
x[773,1] 0
x[773,2] 0
x[774,0] 1
x[774,1] 0
x[774,2] 0
x[775,0] 1
x[775,1] 0
x[775,2] 0
x[776,0] 1
x[776,1] 0
x[776,2] 0
x[777,0] 1
x[777,1] 0
x[777,2] 0
x[778,0] 1
x[778,1] 0
x[778,2] 0
x[779,0] 1
x[779,1] 0
x[779,2] 0
x[780,0] 0
x[780,1] 1
x[780,2] 0
x[781,0] 1
x[781,1] 0
x[781,2] 0
x[782,0] 1
x[782,1] 0
x[782,2] 0
x[783,0] 1
x[783,1] 0
x[783,2] 0
x[784,0] 0
x[784,1] 1
x[784,2] 0
x[785,0] 1
x[785,1] 0
x[785,2] 0
x[786,0] 1
x[786,1] 0
x[786,2] 0
x[787,0] 1
x[787,1] 0
x[787,2] 0
x[788,0] 1
x[788,1] 0
x[788,2] 0
x[789,0] 1
x[789,1] 0
x[789,2] 0
x[790,0] 1
x[790,1] 0
x[790,2] 0
x[791,0] 1
x[791,1] 0
x[791,2] 0
x[792,0] 0
x[792,1] 0
x[792,2] 1
x[793,0] 0
x[793,1] 0
x[793,2] 1
x[794,0] 1
x[794,1] 0
x[794,2] 0
x[795,0] 0
x[795,1] 0
x[795,2] 1
x[796,0] 0
x[796,1] 0
x[796,2] 1
x[797,0] 0
x[797,1] 0
x[797,2] 1
x[798,0] 1
x[798,1] 0
x[798,2] 0
x[799,0] 0
x[799,1] 0
x[799,2] 1
x[800,0] 1
x[800,1] 0
x[800,2] 0
x[801,0] 0
x[801,1] 0
x[801,2] 1
x[802,0] 0
x[802,1] 0
x[802,2] 1
x[803,0] 0
x[803,1] 0
x[803,2] 1
x[804,0] 0
x[804,1] 0
x[804,2] 1
x[805,0] 0
x[805,1] 0
x[805,2] 1
x[806,0] 0
x[806,1] 0
x[806,2] 1
x[807,0] 0
x[807,1] 0
x[807,2] 1
x[808,0] 1
x[808,1] 0
x[808,2] 0
x[809,0] 0
x[809,1] 0
x[809,2] 1
x[810,0] 1
x[810,1] 0
x[810,2] 0
x[811,0] 1
x[811,1] 0
x[811,2] 0
x[812,0] 1
x[812,1] 0
x[812,2] 0
x[813,0] 1
x[813,1] 0
x[813,2] 0
x[814,0] 1
x[814,1] 0
x[814,2] 0
x[815,0] 1
x[815,1] 0
x[815,2] 0
x[816,0] 1
x[816,1] 0
x[816,2] 0
x[817,0] 1
x[817,1] 0
x[817,2] 0
x[818,0] 1
x[818,1] 0
x[818,2] 0
x[819,0] 0
x[819,1] 0
x[819,2] 1
x[820,0] 1
x[820,1] 0
x[820,2] 0
x[821,0] 1
x[821,1] 0
x[821,2] 0
x[822,0] 1
x[822,1] 0
x[822,2] 0
x[823,0] 1
x[823,1] 0
x[823,2] 0
x[824,0] 1
x[824,1] 0
x[824,2] 0
x[825,0] 1
x[825,1] 0
x[825,2] 0
x[826,0] 0
x[826,1] 0
x[826,2] 1
x[827,0] 1
x[827,1] 0
x[827,2] 0
x[828,0] 1
x[828,1] 0
x[828,2] 0
x[829,0] 0
x[829,1] 0
x[829,2] 1
x[830,0] 0
x[830,1] 0
x[830,2] 1
x[831,0] 0
x[831,1] 0
x[831,2] 1
x[832,0] 0
x[832,1] 0
x[832,2] 1
x[833,0] 0
x[833,1] 0
x[833,2] 1
x[834,0] 1
x[834,1] 0
x[834,2] 0
x[835,0] 0
x[835,1] 0
x[835,2] 1
x[836,0] 1
x[836,1] 0
x[836,2] 0
x[837,0] 1
x[837,1] 0
x[837,2] 0
x[838,0] 1
x[838,1] 0
x[838,2] 0
x[839,0] 1
x[839,1] 0
x[839,2] 0
x[840,0] 0
x[840,1] 1
x[840,2] 0
x[841,0] 0
x[841,1] 1
x[841,2] 0
x[842,0] 1
x[842,1] 0
x[842,2] 0
x[843,0] 1
x[843,1] 0
x[843,2] 0
x[844,0] 0
x[844,1] 1
x[844,2] 0
x[845,0] 1
x[845,1] 0
x[845,2] 0
x[846,0] 0
x[846,1] 1
x[846,2] 0
x[847,0] 0
x[847,1] 1
x[847,2] 0
x[848,0] 0
x[848,1] 1
x[848,2] 0
x[849,0] 0
x[849,1] 1
x[849,2] 0
x[850,0] 0
x[850,1] 1
x[850,2] 0
x[851,0] 0
x[851,1] 1
x[851,2] 0
x[852,0] 0
x[852,1] 1
x[852,2] 0
x[853,0] 0
x[853,1] 1
x[853,2] 0
x[854,0] 0
x[854,1] 1
x[854,2] 0
x[855,0] 1
x[855,1] 0
x[855,2] 0
x[856,0] 0
x[856,1] 1
x[856,2] 0
x[857,0] 0
x[857,1] 1
x[857,2] 0
x[858,0] 0
x[858,1] 1
x[858,2] 0
x[859,0] 0
x[859,1] 1
x[859,2] 0
x[860,0] 0
x[860,1] 1
x[860,2] 0
x[861,0] 0
x[861,1] 1
x[861,2] 0
x[862,0] 0
x[862,1] 1
x[862,2] 0
x[863,0] 0
x[863,1] 1
x[863,2] 0
x[864,0] 0
x[864,1] 1
x[864,2] 0
x[865,0] 0
x[865,1] 1
x[865,2] 0
x[866,0] 0
x[866,1] 1
x[866,2] 0
x[867,0] 0
x[867,1] 0
x[867,2] 1
x[868,0] 0
x[868,1] 0
x[868,2] 1
x[869,0] 0
x[869,1] 1
x[869,2] 0
x[870,0] 0
x[870,1] 1
x[870,2] 0
x[871,0] 0
x[871,1] 1
x[871,2] 0
x[872,0] 0
x[872,1] 1
x[872,2] 0
x[873,0] 0
x[873,1] 1
x[873,2] 0
x[874,0] 0
x[874,1] 1
x[874,2] 0
x[875,0] 0
x[875,1] 1
x[875,2] 0
x[876,0] 0
x[876,1] 1
x[876,2] 0
x[877,0] 0
x[877,1] 1
x[877,2] 0
x[878,0] 0
x[878,1] 1
x[878,2] 0
x[879,0] 0
x[879,1] 1
x[879,2] 0
x[880,0] 0
x[880,1] 1
x[880,2] 0
x[881,0] 0
x[881,1] 1
x[881,2] 0
x[882,0] 0
x[882,1] 1
x[882,2] 0
x[883,0] 0
x[883,1] 1
x[883,2] 0
x[884,0] 0
x[884,1] 1
x[884,2] 0
x[885,0] 0
x[885,1] 1
x[885,2] 0
x[886,0] 0
x[886,1] 1
x[886,2] 0
x[887,0] 0
x[887,1] 1
x[887,2] 0
x[888,0] 0
x[888,1] 1
x[888,2] 0
x[889,0] 0
x[889,1] 1
x[889,2] 0
x[890,0] 0
x[890,1] 1
x[890,2] 0
x[891,0] 0
x[891,1] 1
x[891,2] 0
x[892,0] 0
x[892,1] 1
x[892,2] 0
x[893,0] 0
x[893,1] 1
x[893,2] 0
x[894,0] 0
x[894,1] 1
x[894,2] 0
x[895,0] 0
x[895,1] 1
x[895,2] 0
x[896,0] 0
x[896,1] 1
x[896,2] 0
x[897,0] 0
x[897,1] 1
x[897,2] 0
x[898,0] 0
x[898,1] 1
x[898,2] 0
x[899,0] 0
x[899,1] 1
x[899,2] 0
x[900,0] 0
x[900,1] 1
x[900,2] 0
x[901,0] 0
x[901,1] 1
x[901,2] 0
x[902,0] 0
x[902,1] 1
x[902,2] 0
x[903,0] 0
x[903,1] 1
x[903,2] 0
x[904,0] 0
x[904,1] 1
x[904,2] 0
x[905,0] 0
x[905,1] 1
x[905,2] 0
x[906,0] 0
x[906,1] 1
x[906,2] 0
x[907,0] 0
x[907,1] 1
x[907,2] 0
x[908,0] 0
x[908,1] 1
x[908,2] 0
x[909,0] 0
x[909,1] 1
x[909,2] 0
x[910,0] 0
x[910,1] 1
x[910,2] 0
x[911,0] 0
x[911,1] 1
x[911,2] 0
x[912,0] 0
x[912,1] 1
x[912,2] 0
x[913,0] 0
x[913,1] 1
x[913,2] 0
x[914,0] 0
x[914,1] 1
x[914,2] 0
x[915,0] 0
x[915,1] 1
x[915,2] 0
x[916,0] 0
x[916,1] 1
x[916,2] 0
x[917,0] 0
x[917,1] 1
x[917,2] 0
x[918,0] 0
x[918,1] 1
x[918,2] 0
x[919,0] 0
x[919,1] 1
x[919,2] 0
x[920,0] 0
x[920,1] 1
x[920,2] 0
x[921,0] 0
x[921,1] 1
x[921,2] 0
x[922,0] 0
x[922,1] 1
x[922,2] 0
x[923,0] 0
x[923,1] 1
x[923,2] 0
x[924,0] 0
x[924,1] 1
x[924,2] 0
x[925,0] 0
x[925,1] 1
x[925,2] 0
x[926,0] 0
x[926,1] 1
x[926,2] 0
x[927,0] 0
x[927,1] 1
x[927,2] 0
x[928,0] 0
x[928,1] 1
x[928,2] 0
x[929,0] 0
x[929,1] 1
x[929,2] 0
x[930,0] 0
x[930,1] 1
x[930,2] 0
x[931,0] 0
x[931,1] 1
x[931,2] 0
x[932,0] 0
x[932,1] 1
x[932,2] 0
x[933,0] 0
x[933,1] 1
x[933,2] 0
x[934,0] 0
x[934,1] 1
x[934,2] 0
x[935,0] 0
x[935,1] 1
x[935,2] 0
x[936,0] 0
x[936,1] 1
x[936,2] 0
x[937,0] 0
x[937,1] 1
x[937,2] 0
x[938,0] 0
x[938,1] 1
x[938,2] 0
x[939,0] 0
x[939,1] 1
x[939,2] 0
x[940,0] 0
x[940,1] 1
x[940,2] 0
x[941,0] 0
x[941,1] 1
x[941,2] 0
x[942,0] 0
x[942,1] 1
x[942,2] 0
x[943,0] 0
x[943,1] 1
x[943,2] 0
x[944,0] 0
x[944,1] 1
x[944,2] 0
x[945,0] 0
x[945,1] 1
x[945,2] 0
x[946,0] 0
x[946,1] 1
x[946,2] 0
x[947,0] 0
x[947,1] 1
x[947,2] 0
x[948,0] 0
x[948,1] 1
x[948,2] 0
x[949,0] 0
x[949,1] 1
x[949,2] 0
x[950,0] 0
x[950,1] 1
x[950,2] 0
x[951,0] 0
x[951,1] 1
x[951,2] 0
x[952,0] 0
x[952,1] 1
x[952,2] 0
x[953,0] 0
x[953,1] 1
x[953,2] 0
x[954,0] 0
x[954,1] 1
x[954,2] 0
x[955,0] 0
x[955,1] 1
x[955,2] 0
x[956,0] 0
x[956,1] 1
x[956,2] 0
x[957,0] 0
x[957,1] 1
x[957,2] 0
x[958,0] 0
x[958,1] 1
x[958,2] 0
x[959,0] 0
x[959,1] 1
x[959,2] 0
x[960,0] 0
x[960,1] 1
x[960,2] 0
x[961,0] 0
x[961,1] 1
x[961,2] 0
x[962,0] 0
x[962,1] 0
x[962,2] 1
x[963,0] 0
x[963,1] 1
x[963,2] 0
x[964,0] 0
x[964,1] 0
x[964,2] 1
x[965,0] 0
x[965,1] 0
x[965,2] 1
x[966,0] 0
x[966,1] 1
x[966,2] 0
x[967,0] 0
x[967,1] 1
x[967,2] 0
x[968,0] 0
x[968,1] 1
x[968,2] 0
x[969,0] 0
x[969,1] 1
x[969,2] 0
x[970,0] 0
x[970,1] 1
x[970,2] 0
x[971,0] 0
x[971,1] 1
x[971,2] 0
x[972,0] 0
x[972,1] 1
x[972,2] 0
x[973,0] 0
x[973,1] 0
x[973,2] 1
x[974,0] 0
x[974,1] 1
x[974,2] 0
x[975,0] 0
x[975,1] 1
x[975,2] 0
x[976,0] 0
x[976,1] 1
x[976,2] 0
x[977,0] 0
x[977,1] 1
x[977,2] 0
x[978,0] 0
x[978,1] 1
x[978,2] 0
x[979,0] 0
x[979,1] 1
x[979,2] 0
x[980,0] 0
x[980,1] 1
x[980,2] 0
x[981,0] 0
x[981,1] 1
x[981,2] 0
x[982,0] 0
x[982,1] 1
x[982,2] 0
z[0,0,-1] 0
z[0,0,0] 0
z[0,0,1] 1
z[0,1,-1] 0
z[0,1,0] 1
z[0,1,1] 0
z[0,2,-1] 0
z[0,2,0] 1
z[0,2,1] 0
z[1,0,-1] 0
z[1,0,0] 0
z[1,0,1] 1
z[1,1,-1] 1
z[1,1,0] 0
z[1,1,1] 0
z[1,2,-1] 0
z[1,2,0] 1
z[1,2,1] 0
z[2,0,-1] 0
z[2,0,0] 0
z[2,0,1] 1
z[2,1,-1] 0
z[2,1,0] 1
z[2,1,1] 0
z[2,2,-1] 1
z[2,2,0] 0
z[2,2,1] 0
z[3,0,-1] 0
z[3,0,0] 0
z[3,0,1] 1
z[3,1,-1] 0
z[3,1,0] 1
z[3,1,1] 0
z[3,2,-1] 1
z[3,2,0] 0
z[3,2,1] 0
z[4,0,-1] 1
z[4,0,0] 0
z[4,0,1] 0
z[4,1,-1] 0
z[4,1,0] 1
z[4,1,1] 0
z[4,2,-1] 0
z[4,2,0] 1
z[4,2,1] 0
z[5,0,-1] 0
z[5,0,0] 0
z[5,0,1] 1
z[5,1,-1] 1
z[5,1,0] 0
z[5,1,1] 0
z[5,2,-1] 0
z[5,2,0] 1
z[5,2,1] 0
z[6,0,-1] 0
z[6,0,0] 1
z[6,0,1] 0
z[6,1,-1] 1
z[6,1,0] 0
z[6,1,1] 0
z[6,2,-1] 0
z[6,2,0] 1
z[6,2,1] 0
z[7,0,-1] 0
z[7,0,0] 1
z[7,0,1] 0
z[7,1,-1] 0
z[7,1,0] 1
z[7,1,1] 0
z[7,2,-1] 1
z[7,2,0] 0
z[7,2,1] 0
z[8,0,-1] 0
z[8,0,0] 1
z[8,0,1] 0
z[8,1,-1] 0
z[8,1,0] 1
z[8,1,1] 0
z[8,2,-1] 1
z[8,2,0] 0
z[8,2,1] 0
z[9,0,-1] 1
z[9,0,0] 0
z[9,0,1] 0
z[9,1,-1] 0
z[9,1,0] 1
z[9,1,1] 0
z[9,2,-1] 0
z[9,2,0] 1
z[9,2,1] 0
z[10,0,-1] 0
z[10,0,0] 1
z[10,0,1] 0
z[10,1,-1] 1
z[10,1,0] 0
z[10,1,1] 0
z[10,2,-1] 0
z[10,2,0] 1
z[10,2,1] 0
z[11,0,-1] 0
z[11,0,0] 1
z[11,0,1] 0
z[11,1,-1] 0
z[11,1,0] 0
z[11,1,1] 1
z[11,2,-1] 1
z[11,2,0] 0
z[11,2,1] 0
z[12,0,-1] 0
z[12,0,0] 1
z[12,0,1] 0
z[12,1,-1] 0
z[12,1,0] 0
z[12,1,1] 1
z[12,2,-1] 1
z[12,2,0] 0
z[12,2,1] 0
z[13,0,-1] 1
z[13,0,0] 0
z[13,0,1] 0
z[13,1,-1] 0
z[13,1,0] 0
z[13,1,1] 1
z[13,2,-1] 0
z[13,2,0] 1
z[13,2,1] 0
z[14,0,-1] 0
z[14,0,0] 1
z[14,0,1] 0
z[14,1,-1] 1
z[14,1,0] 0
z[14,1,1] 0
z[14,2,-1] 0
z[14,2,0] 1
z[14,2,1] 0
z[15,0,-1] 0
z[15,0,0] 1
z[15,0,1] 0
z[15,1,-1] 0
z[15,1,0] 1
z[15,1,1] 0
z[15,2,-1] 0
z[15,2,0] 0
z[15,2,1] 1
z[16,0,-1] 1
z[16,0,0] 0
z[16,0,1] 0
z[16,1,-1] 0
z[16,1,0] 1
z[16,1,1] 0
z[16,2,-1] 0
z[16,2,0] 0
z[16,2,1] 1
z[17,0,-1] 0
z[17,0,0] 1
z[17,0,1] 0
z[17,1,-1] 1
z[17,1,0] 0
z[17,1,1] 0
z[17,2,-1] 0
z[17,2,0] 0
z[17,2,1] 1
z[18,0,-1] 1
z[18,0,0] 0
z[18,0,1] 0
z[18,1,-1] 0
z[18,1,0] 1
z[18,1,1] 0
z[18,2,-1] 0
z[18,2,0] 0
z[18,2,1] 1
z[19,0,-1] 0
z[19,0,0] 1
z[19,0,1] 0
z[19,1,-1] 1
z[19,1,0] 0
z[19,1,1] 0
z[19,2,-1] 0
z[19,2,0] 0
z[19,2,1] 1
z[20,0,-1] 0
z[20,0,0] 0
z[20,0,1] 1
z[20,1,-1] 1
z[20,1,0] 0
z[20,1,1] 0
z[20,2,-1] 0
z[20,2,0] 1
z[20,2,1] 0
W[0,0,-1] 122
W[0,0,0] 509
W[0,0,1] 1741
W[0,1,-1] 1161
W[0,1,0] 1035
W[0,1,1] 450
W[0,2,-1] 311
W[0,2,0] 911
W[0,2,1] 926
W[1,0,-1] 25
W[1,0,0] 542
W[1,0,1] 1805
W[1,1,-1] 2441
W[1,1,0] 62
W[1,1,1] 143
W[1,2,-1] 251
W[1,2,0] 925
W[1,2,1] 972
W[2,0,-1] 163
W[2,0,0] 507
W[2,0,1] 1702
W[2,1,-1] 471
W[2,1,0] 1443
W[2,1,1] 732
W[2,2,-1] 1762
W[2,2,0] 45
W[2,2,1] 341
W[3,0,-1] 113
W[3,0,0] 528
W[3,0,1] 1731
W[3,1,-1] 442
W[3,1,0] 1467
W[3,1,1] 737
W[3,2,-1] 1690
W[3,2,0] 96
W[3,2,1] 362
W[4,0,-1] 1489
W[4,0,0] 0
W[4,0,1] 883
W[4,1,-1] 115
W[4,1,0] 1604
W[4,1,1] 927
W[4,2,-1] 436
W[4,2,0] 826
W[4,2,1] 886
W[5,0,-1] 28
W[5,0,0] 538
W[5,0,1] 1806
W[5,1,-1] 2396
W[5,1,0] 89
W[5,1,1] 161
W[5,2,-1] 231
W[5,2,0] 934
W[5,2,1] 983
W[6,0,-1] 104
W[6,0,0] 1717
W[6,0,1] 551
W[6,1,-1] 2408
W[6,1,0] 39
W[6,1,1] 199
W[6,2,-1] 300
W[6,2,0] 1320
W[6,2,1] 528
W[7,0,-1] 707
W[7,0,0] 1259
W[7,0,1] 406
W[7,1,-1] 369
W[7,1,0] 1030
W[7,1,1] 1247
W[7,2,-1] 1982
W[7,2,0] 42
W[7,2,1] 124
W[8,0,-1] 508
W[8,0,0] 1423
W[8,0,1] 441
W[8,1,-1] 350
W[8,1,0] 1058
W[8,1,1] 1238
W[8,2,-1] 1903
W[8,2,0] 95
W[8,2,1] 150
W[9,0,-1] 1895
W[9,0,0] 285
W[9,0,1] 192
W[9,1,-1] 120
W[9,1,0] 1177
W[9,1,1] 1349
W[9,2,-1] 608
W[9,2,0] 1048
W[9,2,1] 492
W[10,0,-1] 97
W[10,0,0] 1722
W[10,0,1] 553
W[10,1,-1] 2365
W[10,1,0] 61
W[10,1,1] 220
W[10,2,-1] 269
W[10,2,0] 1334
W[10,2,1] 545
W[11,0,-1] 793
W[11,0,0] 1457
W[11,0,1] 122
W[11,1,-1] 45
W[11,1,0] 65
W[11,1,1] 2536
W[11,2,-1] 2018
W[11,2,0] 46
W[11,2,1] 84
W[12,0,-1] 587
W[12,0,0] 1662
W[12,0,1] 123
W[12,1,-1] 46
W[12,1,0] 77
W[12,1,1] 2523
W[12,2,-1] 1955
W[12,2,0] 96
W[12,2,1] 97
W[13,0,-1] 1933
W[13,0,0] 375
W[13,0,1] 64
W[13,1,-1] 28
W[13,1,0] 77
W[13,1,1] 2541
W[13,2,-1] 651
W[13,2,0] 1148
W[13,2,1] 349
W[14,0,-1] 139
W[14,0,0] 2007
W[14,0,1] 226
W[14,1,-1] 1410
W[14,1,0] 20
W[14,1,1] 1216
W[14,2,-1] 236
W[14,2,0] 1561
W[14,2,1] 351
W[15,0,-1] 240
W[15,0,0] 1433
W[15,0,1] 699
W[15,1,-1] 227
W[15,1,0] 1678
W[15,1,1] 741
W[15,2,-1] 603
W[15,2,0] 0
W[15,2,1] 1545
W[16,0,-1] 1908
W[16,0,0] 341
W[16,0,1] 123
W[16,1,-1] 129
W[16,1,0] 1693
W[16,1,1] 824
W[16,2,-1] 212
W[16,2,0] 54
W[16,2,1] 1882
W[17,0,-1] 97
W[17,0,0] 1470
W[17,0,1] 805
W[17,1,-1] 2492
W[17,1,0] 103
W[17,1,1] 51
W[17,2,-1] 35
W[17,2,0] 48
W[17,2,1] 2065
W[18,0,-1] 1924
W[18,0,0] 389
W[18,0,1] 59
W[18,1,-1] 133
W[18,1,0] 1739
W[18,1,1] 774
W[18,2,-1] 231
W[18,2,0] 116
W[18,2,1] 1801
W[19,0,-1] 111
W[19,0,0] 1667
W[19,0,1] 594
W[19,1,-1] 2493
W[19,1,0] 103
W[19,1,1] 50
W[19,2,-1] 48
W[19,2,0] 114
W[19,2,1] 1986
W[20,0,-1] 44
W[20,0,0] 378
W[20,0,1] 1950
W[20,1,-1] 2509
W[20,1,0] 107
W[20,1,1] 30
W[20,2,-1] 319
W[20,2,0] 1158
W[20,2,1] 671
C[0,0] 753
C[0,1] 1611
C[0,2] 1237
C[1,0] 592
C[1,1] 348
C[1,2] 1223
C[2,0] 833
C[2,1] 1203
C[2,2] 727
C[3,0] 754
C[3,1] 1179
C[3,2] 820
C[4,0] 1766
C[4,1] 1042
C[4,2] 1322
C[5,0] 594
C[5,1] 411
C[5,2] 1214
C[6,0] 655
C[6,1] 437
C[6,2] 828
C[7,0] 1113
C[7,1] 1616
C[7,2] 290
C[8,0] 949
C[8,1] 1588
C[8,2] 395
C[9,0] 669
C[9,1] 1469
C[9,2] 1100
C[10,0] 650
C[10,1] 501
C[10,2] 814
C[11,0] 915
C[11,1] 155
C[11,2] 214
C[12,0] 710
C[12,1] 169
C[12,2] 290
C[13,0] 503
C[13,1] 133
C[13,2] 1000
C[14,0] 365
C[14,1] 2452
C[14,2] 587
C[15,0] 939
C[15,1] 968
C[15,2] 1206
C[16,0] 587
C[16,1] 953
C[16,2] 478
C[17,0] 902
C[17,1] 205
C[17,2] 118
C[18,0] 507
C[18,1] 907
C[18,2] 578
C[19,0] 705
C[19,1] 203
C[19,2] 210
C[20,0] 466
C[20,1] 167
C[20,2] 990
n[0,0] 0
n[0,1] 1
n[0,2] 1
n[1,0] 1
n[1,1] 1
n[1,2] 1
n[2,0] 1
n[2,1] 0
n[2,2] 1
n[3,0] 1
n[3,1] 1
n[3,2] 0
n[4,0] 1
n[4,1] 1
n[4,2] 0
n[5,0] 0
n[5,1] 1
n[5,2] 1
n[6,0] 1
n[6,1] 0
n[6,2] 1
p[0,1,0] 1
p[0,1,1] 0
p[0,1,2] 0
p[0,2,0] 1
p[0,2,1] 0
p[0,2,2] 0
p[0,3,0] 1
p[0,3,1] 0
p[0,3,2] 0
p[0,4,0] 1
p[0,4,1] 0
p[0,4,2] 0
p[0,5,0] 0
p[0,5,1] 0
p[0,5,2] 0
p[0,6,0] 1
p[0,6,1] 0
p[0,6,2] 0
p[1,0,0] 0
p[1,0,1] 0
p[1,0,2] 0
p[1,2,0] 0
p[1,2,1] 0
p[1,2,2] 0
p[1,3,0] 0
p[1,3,1] 0
p[1,3,2] 0
p[1,4,0] 0
p[1,4,1] 0
p[1,4,2] 0
p[1,5,0] 0
p[1,5,1] 0
p[1,5,2] 0
p[1,6,0] 0
p[1,6,1] 0
p[1,6,2] 0
p[2,0,0] 0
p[2,0,1] 1
p[2,0,2] 0
p[2,1,0] 0
p[2,1,1] 1
p[2,1,2] 0
p[2,3,0] 0
p[2,3,1] 1
p[2,3,2] 0
p[2,4,0] 0
p[2,4,1] 1
p[2,4,2] 0
p[2,5,0] 0
p[2,5,1] 1
p[2,5,2] 0
p[2,6,0] 0
p[2,6,1] 0
p[2,6,2] 0
p[3,0,0] 0
p[3,0,1] 0
p[3,0,2] 1
p[3,1,0] 0
p[3,1,1] 0
p[3,1,2] 1
p[3,2,0] 0
p[3,2,1] 0
p[3,2,2] 1
p[3,4,0] 0
p[3,4,1] 0
p[3,4,2] 1
p[3,5,0] 0
p[3,5,1] 0
p[3,5,2] 1
p[3,6,0] 0
p[3,6,1] 0
p[3,6,2] 1
p[4,0,0] 0
p[4,0,1] 0
p[4,0,2] 1
p[4,1,0] 0
p[4,1,1] 0
p[4,1,2] 1
p[4,2,0] 0
p[4,2,1] 0
p[4,2,2] 1
p[4,3,0] 0
p[4,3,1] 0
p[4,3,2] 0
p[4,5,0] 0
p[4,5,1] 0
p[4,5,2] 1
p[4,6,0] 0
p[4,6,1] 0
p[4,6,2] 1
p[5,0,0] 1
p[5,0,1] 0
p[5,0,2] 0
p[5,1,0] 1
p[5,1,1] 0
p[5,1,2] 0
p[5,2,0] 1
p[5,2,1] 0
p[5,2,2] 0
p[5,3,0] 1
p[5,3,1] 0
p[5,3,2] 0
p[5,4,0] 1
p[5,4,1] 0
p[5,4,2] 0
p[5,6,0] 1
p[5,6,1] 0
p[5,6,2] 0
p[6,0,0] 0
p[6,0,1] 1
p[6,0,2] 0
p[6,1,0] 0
p[6,1,1] 1
p[6,1,2] 0
p[6,2,0] 0
p[6,2,1] 1
p[6,2,2] 0
p[6,3,0] 0
p[6,3,1] 1
p[6,3,2] 0
p[6,4,0] 0
p[6,4,1] 1
p[6,4,2] 0
p[6,5,0] 0
p[6,5,1] 1
p[6,5,2] 0
